certificates/rado_a15_c113_N63.cnf
c Rad2 upper bound instance: x1 + 15*x2 - x3 = 113, interval [1,63]
p cnf 63 528
1 8 0
-1 -8 0
1 9 23 0
-1 -9 -23 0
1 10 38 0
-1 -10 -38 0
1 11 53 0
-1 -11 -53 0
2 8 9 0
-2 -8 -9 0
2 9 24 0
-2 -9 -24 0
2 10 39 0
-2 -10 -39 0
2 11 54 0
-2 -11 -54 0
3 8 10 0
-3 -8 -10 0
3 9 25 0
-3 -9 -25 0
3 10 40 0
-3 -10 -40 0
3 11 55 0
-3 -11 -55 0
4 8 11 0
-4 -8 -11 0
4 9 26 0
-4 -9 -26 0
4 10 41 0
-4 -10 -41 0
4 11 56 0
-4 -11 -56 0
5 8 12 0
-5 -8 -12 0
5 9 27 0
-5 -9 -27 0
5 10 42 0
-5 -10 -42 0
5 11 57 0
-5 -11 -57 0
6 8 13 0
-6 -8 -13 0
6 9 28 0
-6 -9 -28 0
6 10 43 0
-6 -10 -43 0
6 11 58 0
-6 -11 -58 0
7 8 14 0
-7 -8 -14 0
7 9 29 0
-7 -9 -29 0
7 10 44 0
-7 -10 -44 0
7 11 59 0
-7 -11 -59 0
8 15 0
-8 -15 0
8 9 30 0
-8 -9 -30 0
8 10 45 0
-8 -10 -45 0
8 11 60 0
-8 -11 -60 0
1 7 9 0
-1 -7 -9 0
8 9 16 0
-8 -9 -16 0
9 31 0
-9 -31 0
9 10 46 0
-9 -10 -46 0
9 11 61 0
-9 -11 -61 0
2 7 10 0
-2 -7 -10 0
8 10 17 0
-8 -10 -17 0
9 10 32 0
-9 -10 -32 0
10 47 0
-10 -47 0
10 11 62 0
-10 -11 -62 0
3 7 11 0
-3 -7 -11 0
8 11 18 0
-8 -11 -18 0
9 11 33 0
-9 -11 -33 0
10 11 48 0
-10 -11 -48 0
11 63 0
-11 -63 0
4 7 12 0
-4 -7 -12 0
8 12 19 0
-8 -12 -19 0
9 12 34 0
-9 -12 -34 0
10 12 49 0
-10 -12 -49 0
5 7 13 0
-5 -7 -13 0
8 13 20 0
-8 -13 -20 0
9 13 35 0
-9 -13 -35 0
10 13 50 0
-10 -13 -50 0
6 7 14 0
-6 -7 -14 0
8 14 21 0
-8 -14 -21 0
9 14 36 0
-9 -14 -36 0
10 14 51 0
-10 -14 -51 0
7 15 0
-7 -15 0
8 15 22 0
-8 -15 -22 0
9 15 37 0
-9 -15 -37 0
10 15 52 0
-10 -15 -52 0
7 8 16 0
-7 -8 -16 0
8 16 23 0
-8 -16 -23 0
9 16 38 0
-9 -16 -38 0
10 16 53 0
-10 -16 -53 0
7 9 17 0
-7 -9 -17 0
8 17 24 0
-8 -17 -24 0
9 17 39 0
-9 -17 -39 0
10 17 54 0
-10 -17 -54 0
7 10 18 0
-7 -10 -18 0
8 18 25 0
-8 -18 -25 0
9 18 40 0
-9 -18 -40 0
10 18 55 0
-10 -18 -55 0
7 11 19 0
-7 -11 -19 0
8 19 26 0
-8 -19 -26 0
9 19 41 0
-9 -19 -41 0
10 19 56 0
-10 -19 -56 0
7 12 20 0
-7 -12 -20 0
8 20 27 0
-8 -20 -27 0
9 20 42 0
-9 -20 -42 0
10 20 57 0
-10 -20 -57 0
7 13 21 0
-7 -13 -21 0
8 21 28 0
-8 -21 -28 0
9 21 43 0
-9 -21 -43 0
10 21 58 0
-10 -21 -58 0
7 14 22 0
-7 -14 -22 0
8 22 29 0
-8 -22 -29 0
9 22 44 0
-9 -22 -44 0
10 22 59 0
-10 -22 -59 0
7 15 23 0
-7 -15 -23 0
8 23 30 0
-8 -23 -30 0
9 23 45 0
-9 -23 -45 0
10 23 60 0
-10 -23 -60 0
1 6 24 0
-1 -6 -24 0
7 16 24 0
-7 -16 -24 0
8 24 31 0
-8 -24 -31 0
9 24 46 0
-9 -24 -46 0
10 24 61 0
-10 -24 -61 0
2 6 25 0
-2 -6 -25 0
7 17 25 0
-7 -17 -25 0
8 25 32 0
-8 -25 -32 0
9 25 47 0
-9 -25 -47 0
10 25 62 0
-10 -25 -62 0
3 6 26 0
-3 -6 -26 0
7 18 26 0
-7 -18 -26 0
8 26 33 0
-8 -26 -33 0
9 26 48 0
-9 -26 -48 0
10 26 63 0
-10 -26 -63 0
4 6 27 0
-4 -6 -27 0
7 19 27 0
-7 -19 -27 0
8 27 34 0
-8 -27 -34 0
9 27 49 0
-9 -27 -49 0
5 6 28 0
-5 -6 -28 0
7 20 28 0
-7 -20 -28 0
8 28 35 0
-8 -28 -35 0
9 28 50 0
-9 -28 -50 0
6 29 0
-6 -29 0
7 21 29 0
-7 -21 -29 0
8 29 36 0
-8 -29 -36 0
9 29 51 0
-9 -29 -51 0
6 7 30 0
-6 -7 -30 0
7 22 30 0
-7 -22 -30 0
8 30 37 0
-8 -30 -37 0
9 30 52 0
-9 -30 -52 0
6 8 31 0
-6 -8 -31 0
7 23 31 0
-7 -23 -31 0
8 31 38 0
-8 -31 -38 0
9 31 53 0
-9 -31 -53 0
6 9 32 0
-6 -9 -32 0
7 24 32 0
-7 -24 -32 0
8 32 39 0
-8 -32 -39 0
9 32 54 0
-9 -32 -54 0
6 10 33 0
-6 -10 -33 0
7 25 33 0
-7 -25 -33 0
8 33 40 0
-8 -33 -40 0
9 33 55 0
-9 -33 -55 0
6 11 34 0
-6 -11 -34 0
7 26 34 0
-7 -26 -34 0
8 34 41 0
-8 -34 -41 0
9 34 56 0
-9 -34 -56 0
6 12 35 0
-6 -12 -35 0
7 27 35 0
-7 -27 -35 0
8 35 42 0
-8 -35 -42 0
9 35 57 0
-9 -35 -57 0
6 13 36 0
-6 -13 -36 0
7 28 36 0
-7 -28 -36 0
8 36 43 0
-8 -36 -43 0
9 36 58 0
-9 -36 -58 0
6 14 37 0
-6 -14 -37 0
7 29 37 0
-7 -29 -37 0
8 37 44 0
-8 -37 -44 0
9 37 59 0
-9 -37 -59 0
6 15 38 0
-6 -15 -38 0
7 30 38 0
-7 -30 -38 0
8 38 45 0
-8 -38 -45 0
9 38 60 0
-9 -38 -60 0
1 5 39 0
-1 -5 -39 0
6 16 39 0
-6 -16 -39 0
7 31 39 0
-7 -31 -39 0
8 39 46 0
-8 -39 -46 0
9 39 61 0
-9 -39 -61 0
2 5 40 0
-2 -5 -40 0
6 17 40 0
-6 -17 -40 0
7 32 40 0
-7 -32 -40 0
8 40 47 0
-8 -40 -47 0
9 40 62 0
-9 -40 -62 0
3 5 41 0
-3 -5 -41 0
6 18 41 0
-6 -18 -41 0
7 33 41 0
-7 -33 -41 0
8 41 48 0
-8 -41 -48 0
9 41 63 0
-9 -41 -63 0
4 5 42 0
-4 -5 -42 0
6 19 42 0
-6 -19 -42 0
7 34 42 0
-7 -34 -42 0
8 42 49 0
-8 -42 -49 0
5 43 0
-5 -43 0
6 20 43 0
-6 -20 -43 0
7 35 43 0
-7 -35 -43 0
8 43 50 0
-8 -43 -50 0
5 6 44 0
-5 -6 -44 0
6 21 44 0
-6 -21 -44 0
7 36 44 0
-7 -36 -44 0
8 44 51 0
-8 -44 -51 0
5 7 45 0
-5 -7 -45 0
6 22 45 0
-6 -22 -45 0
7 37 45 0
-7 -37 -45 0
8 45 52 0
-8 -45 -52 0
5 8 46 0
-5 -8 -46 0
6 23 46 0
-6 -23 -46 0
7 38 46 0
-7 -38 -46 0
8 46 53 0
-8 -46 -53 0
5 9 47 0
-5 -9 -47 0
6 24 47 0
-6 -24 -47 0
7 39 47 0
-7 -39 -47 0
8 47 54 0
-8 -47 -54 0
5 10 48 0
-5 -10 -48 0
6 25 48 0
-6 -25 -48 0
7 40 48 0
-7 -40 -48 0
8 48 55 0
-8 -48 -55 0
5 11 49 0
-5 -11 -49 0
6 26 49 0
-6 -26 -49 0
7 41 49 0
-7 -41 -49 0
8 49 56 0
-8 -49 -56 0
5 12 50 0
-5 -12 -50 0
6 27 50 0
-6 -27 -50 0
7 42 50 0
-7 -42 -50 0
8 50 57 0
-8 -50 -57 0
5 13 51 0
-5 -13 -51 0
6 28 51 0
-6 -28 -51 0
7 43 51 0
-7 -43 -51 0
8 51 58 0
-8 -51 -58 0
5 14 52 0
-5 -14 -52 0
6 29 52 0
-6 -29 -52 0
7 44 52 0
-7 -44 -52 0
8 52 59 0
-8 -52 -59 0
5 15 53 0
-5 -15 -53 0
6 30 53 0
-6 -30 -53 0
7 45 53 0
-7 -45 -53 0
8 53 60 0
-8 -53 -60 0
1 4 54 0
-1 -4 -54 0
5 16 54 0
-5 -16 -54 0
6 31 54 0
-6 -31 -54 0
7 46 54 0
-7 -46 -54 0
8 54 61 0
-8 -54 -61 0
2 4 55 0
-2 -4 -55 0
5 17 55 0
-5 -17 -55 0
6 32 55 0
-6 -32 -55 0
7 47 55 0
-7 -47 -55 0
8 55 62 0
-8 -55 -62 0
3 4 56 0
-3 -4 -56 0
5 18 56 0
-5 -18 -56 0
6 33 56 0
-6 -33 -56 0
7 48 56 0
-7 -48 -56 0
8 56 63 0
-8 -56 -63 0
4 57 0
-4 -57 0
5 19 57 0
-5 -19 -57 0
6 34 57 0
-6 -34 -57 0
7 49 57 0
-7 -49 -57 0
4 5 58 0
-4 -5 -58 0
5 20 58 0
-5 -20 -58 0
6 35 58 0
-6 -35 -58 0
7 50 58 0
-7 -50 -58 0
4 6 59 0
-4 -6 -59 0
5 21 59 0
-5 -21 -59 0
6 36 59 0
-6 -36 -59 0
7 51 59 0
-7 -51 -59 0
4 7 60 0
-4 -7 -60 0
5 22 60 0
-5 -22 -60 0
6 37 60 0
-6 -37 -60 0
7 52 60 0
-7 -52 -60 0
4 8 61 0
-4 -8 -61 0
5 23 61 0
-5 -23 -61 0
6 38 61 0
-6 -38 -61 0
7 53 61 0
-7 -53 -61 0
4 9 62 0
-4 -9 -62 0
5 24 62 0
-5 -24 -62 0
6 39 62 0
-6 -39 -62 0
7 54 62 0
-7 -54 -62 0
4 10 63 0
-4 -10 -63 0
5 25 63 0
-5 -25 -63 0
6 40 63 0
-6 -40 -63 0
7 55 63 0
-7 -55 -63 0
