certificates/rado_a15_c113_N63.drat
4 -63 0
9 -63 0
-63 0
11 0
8 0
-1 0
-15 0
-60 0
-18 0
-4 0
54 0
7 0
57 0
10 0
-61 0
-2 0
-47 0
-17 0
-14 0
-16 0
-59 0
-19 0
-3 0
-62 0
-49 0
-46 0
-5 0
-50 0
-44 0
-45 0
-48 0
-20 0
55 0
6 0
56 0
9 0
39 0
40 0
41 0
42 0
43 0
12 0
52 0
53 0
58 0
21 0
22 0
23 0
24 0
25 0
-33 0
-13 0
-28 0
0
